\ Model MPC
\ LP format - for model browsing. Use MPS format to capture full model detail.
Minimize
 [ 2.17014e-06 y[0,0] ^2 + 1.82326e-07 y[0,1] ^2 + 1.82326e-07 y[0,2] ^2
   + 1.54707e-06 y[0,3] ^2 + 2e-06 y[0,4] ^2 + 2.17014e-06 y[1,0] ^2
   + 1.82326e-07 y[1,1] ^2 + 1.82326e-07 y[1,2] ^2 + 1.54707e-06 y[1,3] ^2
   + 2e-06 y[1,4] ^2 + 2.17014e-06 y[2,0] ^2 + 1.82326e-07 y[2,1] ^2
   + 1.82326e-07 y[2,2] ^2 + 1.54707e-06 y[2,3] ^2 + 2e-06 y[2,4] ^2
   + 2.17014e-06 y[3,0] ^2 + 1.82326e-07 y[3,1] ^2 + 1.82326e-07 y[3,2] ^2
   + 1.54707e-06 y[3,3] ^2 + 2e-06 y[3,4] ^2 + 2.17014e-06 y[4,0] ^2
   + 1.82326e-07 y[4,1] ^2 + 1.82326e-07 y[4,2] ^2 + 1.54707e-06 y[4,3] ^2
   + 2e-06 y[4,4] ^2 + 2.17014e-06 y[5,0] ^2 + 1.82326e-07 y[5,1] ^2
   + 1.82326e-07 y[5,2] ^2 + 1.54707e-06 y[5,3] ^2 + 2e-06 y[5,4] ^2
   + 0.1 z[0,0] ^2 + 0.5 z[0,1] ^2 + 0.1 z[0,2] ^2 + 0.5 z[0,3] ^2
   + 0.2 z[0,4] ^2 + 0.1 z[1,0] ^2 + 0.5 z[1,1] ^2 + 0.1 z[1,2] ^2
   + 0.5 z[1,3] ^2 + 0.2 z[1,4] ^2 + 0.1 z[2,0] ^2 + 0.5 z[2,1] ^2
   + 0.1 z[2,2] ^2 + 0.5 z[2,3] ^2 + 0.2 z[2,4] ^2 + 0.1 z[3,0] ^2
   + 0.5 z[3,1] ^2 + 0.1 z[3,2] ^2 + 0.5 z[3,3] ^2 + 0.2 z[3,4] ^2
   + 0.1 z[4,0] ^2 + 0.5 z[4,1] ^2 + 0.1 z[4,2] ^2 + 0.5 z[4,3] ^2
   + 0.2 z[4,4] ^2 ] / 2 
Subject To
 R0: x[0,0] = 17
 R1: x[0,1] = 96
 R2: x[0,2] = 21
 R3: x[0,3] = 301
 R4: x[0,4] = 28
 R5: - x[0,0] + x[1,0] + 0.2336111111111111 u[0,0] = 18.06388888888889
 R6: - x[0,1] + x[1,1] + 0.4194444444444445 u[0,1] = 29.63333333333333
 R7: - x[0,2] + x[1,2] + 0.5602777777777778 u[0,2] = 23.52777777777778
 R8: - x[0,3] + x[1,3] + 0.8888888888888888 u[0,3] = 101.9666666666667
 R9: - x[0,4] + x[1,4] + 0.2336111111111111 u[0,4] = 4.666666666666667
 R10: u[0,0] - u[0,1] = 0
 R11: u[0,4] = 0
 R12: u[0,2] - u[0,3] = 0
 R13: u[0,0] + u[0,2] = 64
 R14: - x[0,0] + y[0,0] = 0
 R15: - x[0,1] + y[0,1] = 0
 R16: - x[0,2] + y[0,2] = 0
 R17: - x[0,3] + y[0,3] = 0
 R18: - x[0,4] + y[0,4] = 0
 R19: z[0,0] = 0
 R20: z[0,1] = 0
 R21: z[0,2] = 0
 R22: z[0,3] = 0
 R23: z[0,4] = 0
 R24: - x[1,0] + x[2,0] + 0.2336111111111111 u[1,0] = 18.06388888888889
 R25: - x[1,1] + x[2,1] + 0.4194444444444445 u[1,1] = 29.63333333333333
 R26: - x[1,2] + x[2,2] + 0.5602777777777778 u[1,2] = 23.52777777777778
 R27: - x[1,3] + x[2,3] + 0.8888888888888888 u[1,3] = 101.9666666666667
 R28: - x[1,4] + x[2,4] + 0.2336111111111111 u[1,4] = 4.666666666666667
 R29: u[1,0] - u[1,1] = 0
 R30: u[0,4] = 0
 R31: u[0,2] - u[0,3] = 0
 R32: u[1,0] + u[1,2] = 64
 R33: - x[1,0] + y[1,0] = 0
 R34: - x[1,1] + y[1,1] = 0
 R35: - x[1,2] + y[1,2] = 0
 R36: - x[1,3] + y[1,3] = 0
 R37: - x[1,4] + y[1,4] = 0
 R38: u[0,0] - u[1,0] + z[1,0] = 0
 R39: u[0,1] - u[1,1] + z[1,1] = 0
 R40: u[0,2] - u[1,2] + z[1,2] = 0
 R41: u[0,3] - u[1,3] + z[1,3] = 0
 R42: u[0,4] - u[1,4] + z[1,4] = 0
 R43: - x[2,0] + x[3,0] + 0.2336111111111111 u[2,0] = 18.06388888888889
 R44: - x[2,1] + x[3,1] + 0.4194444444444445 u[2,1] = 29.63333333333333
 R45: - x[2,2] + x[3,2] + 0.5602777777777778 u[2,2] = 23.52777777777778
 R46: - x[2,3] + x[3,3] + 0.8888888888888888 u[2,3] = 101.9666666666667
 R47: - x[2,4] + x[3,4] + 0.2336111111111111 u[2,4] = 4.666666666666667
 R48: u[2,0] - u[2,1] = 0
 R49: u[0,4] = 0
 R50: u[0,2] - u[0,3] = 0
 R51: u[2,0] + u[2,2] = 64
 R52: - x[2,0] + y[2,0] = 0
 R53: - x[2,1] + y[2,1] = 0
 R54: - x[2,2] + y[2,2] = 0
 R55: - x[2,3] + y[2,3] = 0
 R56: - x[2,4] + y[2,4] = 0
 R57: u[0,0] - u[2,0] + z[2,0] = 0
 R58: u[0,1] - u[2,1] + z[2,1] = 0
 R59: u[0,2] - u[2,2] + z[2,2] = 0
 R60: u[0,3] - u[2,3] + z[2,3] = 0
 R61: u[0,4] - u[2,4] + z[2,4] = 0
 R62: - x[3,0] + x[4,0] + 0.2336111111111111 u[3,0] = 18.06388888888889
 R63: - x[3,1] + x[4,1] + 0.4194444444444445 u[3,1] = 29.63333333333333
 R64: - x[3,2] + x[4,2] + 0.5602777777777778 u[3,2] = 23.52777777777778
 R65: - x[3,3] + x[4,3] + 0.8888888888888888 u[3,3] = 101.9666666666667
 R66: - x[3,4] + x[4,4] + 0.2336111111111111 u[3,4] = 4.666666666666667
 R67: u[3,0] - u[3,1] = 0
 R68: u[0,4] = 0
 R69: u[0,2] - u[0,3] = 0
 R70: u[3,0] + u[3,2] = 64
 R71: - x[3,0] + y[3,0] = 0
 R72: - x[3,1] + y[3,1] = 0
 R73: - x[3,2] + y[3,2] = 0
 R74: - x[3,3] + y[3,3] = 0
 R75: - x[3,4] + y[3,4] = 0
 R76: u[0,0] - u[3,0] + z[3,0] = 0
 R77: u[0,1] - u[3,1] + z[3,1] = 0
 R78: u[0,2] - u[3,2] + z[3,2] = 0
 R79: u[0,3] - u[3,3] + z[3,3] = 0
 R80: u[0,4] - u[3,4] + z[3,4] = 0
 R81: - x[4,0] + x[5,0] + 0.2336111111111111 u[4,0] = 18.06388888888889
 R82: - x[4,1] + x[5,1] + 0.4194444444444445 u[4,1] = 29.63333333333333
 R83: - x[4,2] + x[5,2] + 0.5602777777777778 u[4,2] = 23.52777777777778
 R84: - x[4,3] + x[5,3] + 0.8888888888888888 u[4,3] = 101.9666666666667
 R85: - x[4,4] + x[5,4] + 0.2336111111111111 u[4,4] = 4.666666666666667
 R86: u[4,0] - u[4,1] = 0
 R87: u[0,4] = 0
 R88: u[0,2] - u[0,3] = 0
 R89: u[4,0] + u[4,2] = 64
 R90: - x[4,0] + y[4,0] = 0
 R91: - x[4,1] + y[4,1] = 0
 R92: - x[4,2] + y[4,2] = 0
 R93: - x[4,3] + y[4,3] = 0
 R94: - x[4,4] + y[4,4] = 0
 R95: u[0,0] - u[4,0] + z[4,0] = 0
 R96: u[0,1] - u[4,1] + z[4,1] = 0
 R97: u[0,2] - u[4,2] + z[4,2] = 0
 R98: u[0,3] - u[4,3] + z[4,3] = 0
 R99: u[0,4] - u[4,4] + z[4,4] = 0
 R100: - x[5,0] + y[5,0] = 0
 R101: - x[5,1] + y[5,1] = 0
 R102: - x[5,2] + y[5,2] = 0
 R103: - x[5,3] + y[5,3] = 0
 R104: - x[5,4] + y[5,4] = 0
 R105: u[0,0] >= 16
 R106: u[0,2] - u[0,4] >= 0
 R107: u[0,0] - u[0,2] >= 0
Bounds
 x[0,0] <= 250
 x[0,1] <= 250
 x[0,2] <= 400
 x[0,3] <= 400
 x[0,4] <= 120
 x[1,0] <= 250
 x[1,1] <= 250
 x[1,2] <= 400
 x[1,3] <= 400
 x[1,4] <= 120
 x[2,0] <= 250
 x[2,1] <= 250
 x[2,2] <= 400
 x[2,3] <= 400
 x[2,4] <= 120
 x[3,0] <= 250
 x[3,1] <= 250
 x[3,2] <= 400
 x[3,3] <= 400
 x[3,4] <= 120
 x[4,0] <= 250
 x[4,1] <= 250
 x[4,2] <= 400
 x[4,3] <= 400
 x[4,4] <= 120
 x[5,0] <= 250
 x[5,1] <= 250
 x[5,2] <= 400
 x[5,3] <= 400
 x[5,4] <= 120
 y[0,0] free
 y[0,1] free
 y[0,2] free
 y[0,3] free
 y[0,4] free
 y[1,0] free
 y[1,1] free
 y[1,2] free
 y[1,3] free
 y[1,4] free
 y[2,0] free
 y[2,1] free
 y[2,2] free
 y[2,3] free
 y[2,4] free
 y[3,0] free
 y[3,1] free
 y[3,2] free
 y[3,3] free
 y[3,4] free
 y[4,0] free
 y[4,1] free
 y[4,2] free
 y[4,3] free
 y[4,4] free
 y[5,0] free
 y[5,1] free
 y[5,2] free
 y[5,3] free
 y[5,4] free
 z[0,0] free
 z[0,1] free
 z[0,2] free
 z[0,3] free
 z[0,4] free
 z[1,0] free
 z[1,1] free
 z[1,2] free
 z[1,3] free
 z[1,4] free
 z[2,0] free
 z[2,1] free
 z[2,2] free
 z[2,3] free
 z[2,4] free
 z[3,0] free
 z[3,1] free
 z[3,2] free
 z[3,3] free
 z[3,4] free
 z[4,0] free
 z[4,1] free
 z[4,2] free
 z[4,3] free
 z[4,4] free
Generals
 u[0,0] u[0,1] u[0,2] u[0,3] u[0,4] u[1,0] u[1,1] u[1,2] u[1,3] u[1,4]
 u[2,0] u[2,1] u[2,2] u[2,3] u[2,4] u[3,0] u[3,1] u[3,2] u[3,3] u[3,4]
 u[4,0] u[4,1] u[4,2] u[4,3] u[4,4]
End
